56160
3, 43, 40, 51, 37, 7, 50, 20, 24, 35, 5, 13, 41, 32, 38, 8, 44, 19, 48, 17, 23, 53, 34, 54, 47, 30, 18, 4, 12, 14, 9, 2, 11, 25, 31, 27, 1, 33, 42, 45, 52, 15, 36, 39, 46, 16, 10, 22, 29, 21, 26, 49, 55, 28, 6
